1601307
3,21,38,67,64,7,43,34,46,55,26,66,11,6,41,30,25,29,60,23,49,19,5,40,56,32,12,1,13,54,65,45,27,17,9,58,15,8,68,35,51,39,62,37,53,44,10,18,57,33,52,14,22,31,28,50,36,59,16,63,2,48,4,20,47,24,61,42,3